p cnf 11 58
10 11 8 0
7 -5 -10 0
-6 -3 2 0
-11 -8 -6 0
9 10 -5 0
9 -2 -4 0
-2 -11 7 0
5 4 -6 0
-7 9 -1 0
11 -1 7 0
11 -5 -4 0
4 -8 -2 0
1 9 -11 0
-3 4 -8 0
-2 9 -8 0
-3 2 -6 0
2 9 -10 0
8 -1 4 0
2 -1 11 0
-8 -10 -5 0
11 6 -8 0
10 7 9 0
-9 5 -2 0
-6 3 8 0
11 2 1 0
1 4 -3 0
8 -6 -3 0
-4 -7 6 0
9 -1 6 0
-9 1 -11 0
9 5 -10 0
3 -9 -11 0
-4 5 -2 0
11 -10 7 0
-7 4 -10 0
7 6 4 0
-5 -4 2 0
-4 7 1 0
-8 2 10 0
-1 -7 10 0
-10 5 9 0
-4 -5 10 0
9 -1 11 0
-7 -3 -11 0
2 7 -1 0
-7 3 9 0
-11 2 -6 0
7 -4 6 0
11 -4 -10 0
4 -3 -2 0
3 -11 -5 0
1 4 3 0
11 -1 9 0
9 -5 2 0
3 -1 -8 0
2 -4 8 0
11 -7 9 0
5 -2 4 0
